p cnf 15 22
-15 10 4 0
15 -9 3 0
15 8 -7 0
-15 6 -1 0
-14 -13 -8 0
-14 -13 -4 0
14 6 -4 0
-13 12 -1 0
-13 -10 -9 0
-13 -7 2 0
13 -3 -1 0
12 -3 -1 0
-11 8 -6 0
-11 8 -2 0
-11 2 1 0
10 -7 -6 0
10 -6 -3 0
10 -4 1 0
-9 -8 7 0
-9 -8 6 0
-6 -4 1 0
-4 -2 1 0
